p cnf 590 2524
1 0
-2 0
-3 0
-4 0
-5 0
-6 0
-7 0
-8 0
57 9 0
-57 -9 0
9 10 11 12 13 14 15 16 0
-393 -394 0
-393 -395 0
-394 -395 0
-396 -397 0
-396 -398 0
-397 -398 0
-9 393 0
-9 396 0
-10 393 0
-10 397 0
-11 393 0
-11 398 0
-12 394 0
-12 396 0
-13 394 0
-13 397 0
-14 394 0
-14 398 0
-15 395 0
-15 396 0
-16 395 0
-16 397 0
-9 1 17 0
-9 1 65 0
-9 17 65 0
-10 2 18 0
-10 2 66 0
-10 18 66 0
-11 3 19 0
-11 3 67 0
-11 19 67 0
-12 4 20 0
-12 4 68 0
-12 20 68 0
-13 5 21 0
-13 5 69 0
-13 21 69 0
-14 6 22 0
-14 6 70 0
-14 22 70 0
-15 7 23 0
-15 7 71 0
-15 23 71 0
-16 8 24 0
-16 8 72 0
-16 24 72 0
-9 -1 -17 -65 0
-10 -2 -18 -66 0
-11 -3 -19 -67 0
-12 -4 -20 -68 0
-13 -5 -21 -69 0
-14 -6 -22 -70 0
-15 -7 -23 -71 0
-16 -8 -24 -72 0
17 18 19 20 21 22 23 24 0
-399 -400 0
-399 -401 0
-400 -401 0
-402 -403 0
-402 -404 0
-403 -404 0
-17 399 0
-17 402 0
-18 399 0
-18 403 0
-19 399 0
-19 404 0
-20 400 0
-20 402 0
-21 400 0
-21 403 0
-22 400 0
-22 404 0
-23 401 0
-23 402 0
-24 401 0
-24 403 0
-17 9 25 0
-17 9 73 0
-17 25 73 0
-18 10 26 0
-18 10 74 0
-18 26 74 0
-19 11 27 0
-19 11 75 0
-19 27 75 0
-20 12 28 0
-20 12 76 0
-20 28 76 0
-21 13 29 0
-21 13 77 0
-21 29 77 0
-22 14 30 0
-22 14 78 0
-22 30 78 0
-23 15 31 0
-23 15 79 0
-23 31 79 0
-24 16 32 0
-24 16 80 0
-24 32 80 0
-17 -9 -25 -73 0
-18 -10 -26 -74 0
-19 -11 -27 -75 0
-20 -12 -28 -76 0
-21 -13 -29 -77 0
-22 -14 -30 -78 0
-23 -15 -31 -79 0
-24 -16 -32 -80 0
31 0
-25 0
-26 0
-27 0
-28 0
-29 0
-30 0
-32 0
23 39 87 0
-23 -39 0
-23 -87 0
-39 -87 0
33 34 35 36 37 38 39 40 0
-405 -406 0
-405 -407 0
-406 -407 0
-408 -409 0
-408 -410 0
-409 -410 0
-33 405 0
-33 408 0
-34 405 0
-34 409 0
-35 405 0
-35 410 0
-36 406 0
-36 408 0
-37 406 0
-37 409 0
-38 406 0
-38 410 0
-39 407 0
-39 408 0
-40 407 0
-40 409 0
-33 25 41 0
-33 25 89 0
-33 41 89 0
-34 26 42 0
-34 26 90 0
-34 42 90 0
-35 27 43 0
-35 27 91 0
-35 43 91 0
-36 28 44 0
-36 28 92 0
-36 44 92 0
-37 29 45 0
-37 29 93 0
-37 45 93 0
-38 30 46 0
-38 30 94 0
-38 46 94 0
-39 31 47 0
-39 31 95 0
-39 47 95 0
-40 32 48 0
-40 32 96 0
-40 48 96 0
-33 -25 -41 -89 0
-34 -26 -42 -90 0
-35 -27 -43 -91 0
-36 -28 -44 -92 0
-37 -29 -45 -93 0
-38 -30 -46 -94 0
-39 -31 -47 -95 0
-40 -32 -48 -96 0
41 42 43 44 45 46 47 48 0
-411 -412 0
-411 -413 0
-412 -413 0
-414 -415 0
-414 -416 0
-415 -416 0
-41 411 0
-41 414 0
-42 411 0
-42 415 0
-43 411 0
-43 416 0
-44 412 0
-44 414 0
-45 412 0
-45 415 0
-46 412 0
-46 416 0
-47 413 0
-47 414 0
-48 413 0
-48 415 0
-41 33 49 0
-41 33 97 0
-41 49 97 0
-42 34 50 0
-42 34 98 0
-42 50 98 0
-43 35 51 0
-43 35 99 0
-43 51 99 0
-44 36 52 0
-44 36 100 0
-44 52 100 0
-45 37 53 0
-45 37 101 0
-45 53 101 0
-46 38 54 0
-46 38 102 0
-46 54 102 0
-47 39 55 0
-47 39 103 0
-47 55 103 0
-48 40 56 0
-48 40 104 0
-48 56 104 0
-41 -33 -49 -97 0
-42 -34 -50 -98 0
-43 -35 -51 -99 0
-44 -36 -52 -100 0
-45 -37 -53 -101 0
-46 -38 -54 -102 0
-47 -39 -55 -103 0
-48 -40 -56 -104 0
49 50 51 52 53 54 55 56 0
-417 -418 0
-417 -419 0
-418 -419 0
-420 -421 0
-420 -422 0
-421 -422 0
-49 417 0
-49 420 0
-50 417 0
-50 421 0
-51 417 0
-51 422 0
-52 418 0
-52 420 0
-53 418 0
-53 421 0
-54 418 0
-54 422 0
-55 419 0
-55 420 0
-56 419 0
-56 421 0
-49 105 0
-49 41 0
-50 106 0
-50 42 0
-51 107 0
-51 43 0
-52 108 0
-52 44 0
-53 109 0
-53 45 0
-54 110 0
-54 46 0
-55 111 0
-55 47 0
-56 112 0
-56 48 0
57 58 59 60 61 62 63 64 0
-423 -424 0
-423 -425 0
-424 -425 0
-426 -427 0
-426 -428 0
-427 -428 0
-57 423 0
-57 426 0
-58 423 0
-58 427 0
-59 423 0
-59 428 0
-60 424 0
-60 426 0
-61 424 0
-61 427 0
-62 424 0
-62 428 0
-63 425 0
-63 426 0
-64 425 0
-64 427 0
-57 113 65 0
-57 113 1 0
-57 65 1 0
-58 114 66 0
-58 114 2 0
-58 66 2 0
-59 115 67 0
-59 115 3 0
-59 67 3 0
-60 116 68 0
-60 116 4 0
-60 68 4 0
-61 117 69 0
-61 117 5 0
-61 69 5 0
-62 118 70 0
-62 118 6 0
-62 70 6 0
-63 119 71 0
-63 119 7 0
-63 71 7 0
-64 120 72 0
-64 120 8 0
-64 72 8 0
-57 -113 -65 -1 0
-58 -114 -66 -2 0
-59 -115 -67 -3 0
-60 -116 -68 -4 0
-61 -117 -69 -5 0
-62 -118 -70 -6 0
-63 -119 -71 -7 0
-64 -120 -72 -8 0
71 0
-65 0
-66 0
-67 0
-68 0
-69 0
-70 0
-72 0
127 79 15 63 0
-127 -79 0
-127 -15 0
-127 -63 0
-79 -15 0
-79 -63 0
-15 -63 0
77 0
-73 0
-74 0
-75 0
-76 0
-78 0
-79 0
-80 0
133 85 21 69 0
-133 -85 0
-133 -21 0
-133 -69 0
-85 -21 0
-85 -69 0
-21 -69 0
81 82 83 84 85 86 87 88 0
-429 -430 0
-429 -431 0
-430 -431 0
-432 -433 0
-432 -434 0
-433 -434 0
-81 429 0
-81 432 0
-82 429 0
-82 433 0
-83 429 0
-83 434 0
-84 430 0
-84 432 0
-85 430 0
-85 433 0
-86 430 0
-86 434 0
-87 431 0
-87 432 0
-88 431 0
-88 433 0
-81 137 89 25 0
-81 137 89 73 0
-81 137 25 73 0
-81 89 25 73 0
-82 138 90 26 0
-82 138 90 74 0
-82 138 26 74 0
-82 90 26 74 0
-83 139 91 27 0
-83 139 91 75 0
-83 139 27 75 0
-83 91 27 75 0
-84 140 92 28 0
-84 140 92 76 0
-84 140 28 76 0
-84 92 28 76 0
-85 141 93 29 0
-85 141 93 77 0
-85 141 29 77 0
-85 93 29 77 0
-86 142 94 30 0
-86 142 94 78 0
-86 142 30 78 0
-86 94 30 78 0
-87 143 95 31 0
-87 143 95 79 0
-87 143 31 79 0
-87 95 31 79 0
-88 144 96 32 0
-88 144 96 80 0
-88 144 32 80 0
-88 96 32 80 0
-81 -137 -89 -25 0
-81 -137 -89 -73 0
-81 -137 -25 -73 0
-81 -89 -25 -73 0
-82 -138 -90 -26 0
-82 -138 -90 -74 0
-82 -138 -26 -74 0
-82 -90 -26 -74 0
-83 -139 -91 -27 0
-83 -139 -91 -75 0
-83 -139 -27 -75 0
-83 -91 -27 -75 0
-84 -140 -92 -28 0
-84 -140 -92 -76 0
-84 -140 -28 -76 0
-84 -92 -28 -76 0
-85 -141 -93 -29 0
-85 -141 -93 -77 0
-85 -141 -29 -77 0
-85 -93 -29 -77 0
-86 -142 -94 -30 0
-86 -142 -94 -78 0
-86 -142 -30 -78 0
-86 -94 -30 -78 0
-87 -143 -95 -31 0
-87 -143 -95 -79 0
-87 -143 -31 -79 0
-87 -95 -31 -79 0
-88 -144 -96 -32 0
-88 -144 -96 -80 0
-88 -144 -32 -80 0
-88 -96 -32 -80 0
89 90 91 92 93 94 95 96 0
-435 -436 0
-435 -437 0
-436 -437 0
-438 -439 0
-438 -440 0
-439 -440 0
-89 435 0
-89 438 0
-90 435 0
-90 439 0
-91 435 0
-91 440 0
-92 436 0
-92 438 0
-93 436 0
-93 439 0
-94 436 0
-94 440 0
-95 437 0
-95 438 0
-96 437 0
-96 439 0
-89 145 97 33 0
-89 145 97 81 0
-89 145 33 81 0
-89 97 33 81 0
-90 146 98 34 0
-90 146 98 82 0
-90 146 34 82 0
-90 98 34 82 0
-91 147 99 35 0
-91 147 99 83 0
-91 147 35 83 0
-91 99 35 83 0
-92 148 100 36 0
-92 148 100 84 0
-92 148 36 84 0
-92 100 36 84 0
-93 149 101 37 0
-93 149 101 85 0
-93 149 37 85 0
-93 101 37 85 0
-94 150 102 38 0
-94 150 102 86 0
-94 150 38 86 0
-94 102 38 86 0
-95 151 103 39 0
-95 151 103 87 0
-95 151 39 87 0
-95 103 39 87 0
-96 152 104 40 0
-96 152 104 88 0
-96 152 40 88 0
-96 104 40 88 0
-89 -145 -97 -33 0
-89 -145 -97 -81 0
-89 -145 -33 -81 0
-89 -97 -33 -81 0
-90 -146 -98 -34 0
-90 -146 -98 -82 0
-90 -146 -34 -82 0
-90 -98 -34 -82 0
-91 -147 -99 -35 0
-91 -147 -99 -83 0
-91 -147 -35 -83 0
-91 -99 -35 -83 0
-92 -148 -100 -36 0
-92 -148 -100 -84 0
-92 -148 -36 -84 0
-92 -100 -36 -84 0
-93 -149 -101 -37 0
-93 -149 -101 -85 0
-93 -149 -37 -85 0
-93 -101 -37 -85 0
-94 -150 -102 -38 0
-94 -150 -102 -86 0
-94 -150 -38 -86 0
-94 -102 -38 -86 0
-95 -151 -103 -39 0
-95 -151 -103 -87 0
-95 -151 -39 -87 0
-95 -103 -39 -87 0
-96 -152 -104 -40 0
-96 -152 -104 -88 0
-96 -152 -40 -88 0
-96 -104 -40 -88 0
100 0
-97 0
-98 0
-99 0
-101 0
-102 0
-103 0
-104 0
156 108 44 92 0
-156 -108 0
-156 -44 0
-156 -92 0
-108 -44 0
-108 -92 0
-44 -92 0
107 0
-105 0
-106 0
-108 0
-109 0
-110 0
-111 0
-112 0
163 99 51 0
-163 -99 0
-163 -51 0
-99 -51 0
113 114 115 116 117 118 119 120 0
-441 -442 0
-441 -443 0
-442 -443 0
-444 -445 0
-444 -446 0
-445 -446 0
-113 441 0
-113 444 0
-114 441 0
-114 445 0
-115 441 0
-115 446 0
-116 442 0
-116 444 0
-117 442 0
-117 445 0
-118 442 0
-118 446 0
-119 443 0
-119 444 0
-120 443 0
-120 445 0
-113 169 121 0
-113 169 57 0
-113 121 57 0
-114 170 122 0
-114 170 58 0
-114 122 58 0
-115 171 123 0
-115 171 59 0
-115 123 59 0
-116 172 124 0
-116 172 60 0
-116 124 60 0
-117 173 125 0
-117 173 61 0
-117 125 61 0
-118 174 126 0
-118 174 62 0
-118 126 62 0
-119 175 127 0
-119 175 63 0
-119 127 63 0
-120 176 128 0
-120 176 64 0
-120 128 64 0
-113 -169 -121 -57 0
-114 -170 -122 -58 0
-115 -171 -123 -59 0
-116 -172 -124 -60 0
-117 -173 -125 -61 0
-118 -174 -126 -62 0
-119 -175 -127 -63 0
-120 -176 -128 -64 0
121 122 123 124 125 126 127 128 0
-447 -448 0
-447 -449 0
-448 -449 0
-450 -451 0
-450 -452 0
-451 -452 0
-121 447 0
-121 450 0
-122 447 0
-122 451 0
-123 447 0
-123 452 0
-124 448 0
-124 450 0
-125 448 0
-125 451 0
-126 448 0
-126 452 0
-127 449 0
-127 450 0
-128 449 0
-128 451 0
-121 177 129 65 0
-121 177 129 113 0
-121 177 65 113 0
-121 129 65 113 0
-122 178 130 66 0
-122 178 130 114 0
-122 178 66 114 0
-122 130 66 114 0
-123 179 131 67 0
-123 179 131 115 0
-123 179 67 115 0
-123 131 67 115 0
-124 180 132 68 0
-124 180 132 116 0
-124 180 68 116 0
-124 132 68 116 0
-125 181 133 69 0
-125 181 133 117 0
-125 181 69 117 0
-125 133 69 117 0
-126 182 134 70 0
-126 182 134 118 0
-126 182 70 118 0
-126 134 70 118 0
-127 183 135 71 0
-127 183 135 119 0
-127 183 71 119 0
-127 135 71 119 0
-128 184 136 72 0
-128 184 136 120 0
-128 184 72 120 0
-128 136 72 120 0
-121 -177 -129 -65 0
-121 -177 -129 -113 0
-121 -177 -65 -113 0
-121 -129 -65 -113 0
-122 -178 -130 -66 0
-122 -178 -130 -114 0
-122 -178 -66 -114 0
-122 -130 -66 -114 0
-123 -179 -131 -67 0
-123 -179 -131 -115 0
-123 -179 -67 -115 0
-123 -131 -67 -115 0
-124 -180 -132 -68 0
-124 -180 -132 -116 0
-124 -180 -68 -116 0
-124 -132 -68 -116 0
-125 -181 -133 -69 0
-125 -181 -133 -117 0
-125 -181 -69 -117 0
-125 -133 -69 -117 0
-126 -182 -134 -70 0
-126 -182 -134 -118 0
-126 -182 -70 -118 0
-126 -134 -70 -118 0
-127 -183 -135 -71 0
-127 -183 -135 -119 0
-127 -183 -71 -119 0
-127 -135 -71 -119 0
-128 -184 -136 -72 0
-128 -184 -136 -120 0
-128 -184 -72 -120 0
-128 -136 -72 -120 0
134 0
-129 0
-130 0
-131 0
-132 0
-133 0
-135 0
-136 0
190 142 78 126 0
-190 -142 0
-190 -78 0
-190 -126 0
-142 -78 0
-142 -126 0
-78 -126 0
141 0
-137 0
-138 0
-139 0
-140 0
-142 0
-143 0
-144 0
197 149 85 133 0
-197 -149 0
-197 -85 0
-197 -133 0
-149 -85 0
-149 -133 0
-85 -133 0
145 146 147 148 149 150 151 152 0
-453 -454 0
-453 -455 0
-454 -455 0
-456 -457 0
-456 -458 0
-457 -458 0
-145 453 0
-145 456 0
-146 453 0
-146 457 0
-147 453 0
-147 458 0
-148 454 0
-148 456 0
-149 454 0
-149 457 0
-150 454 0
-150 458 0
-151 455 0
-151 456 0
-152 455 0
-152 457 0
-145 201 153 89 0
-145 201 153 137 0
-145 201 89 137 0
-145 153 89 137 0
-146 202 154 90 0
-146 202 154 138 0
-146 202 90 138 0
-146 154 90 138 0
-147 203 155 91 0
-147 203 155 139 0
-147 203 91 139 0
-147 155 91 139 0
-148 204 156 92 0
-148 204 156 140 0
-148 204 92 140 0
-148 156 92 140 0
-149 205 157 93 0
-149 205 157 141 0
-149 205 93 141 0
-149 157 93 141 0
-150 206 158 94 0
-150 206 158 142 0
-150 206 94 142 0
-150 158 94 142 0
-151 207 159 95 0
-151 207 159 143 0
-151 207 95 143 0
-151 159 95 143 0
-152 208 160 96 0
-152 208 160 144 0
-152 208 96 144 0
-152 160 96 144 0
-145 -201 -153 -89 0
-145 -201 -153 -137 0
-145 -201 -89 -137 0
-145 -153 -89 -137 0
-146 -202 -154 -90 0
-146 -202 -154 -138 0
-146 -202 -90 -138 0
-146 -154 -90 -138 0
-147 -203 -155 -91 0
-147 -203 -155 -139 0
-147 -203 -91 -139 0
-147 -155 -91 -139 0
-148 -204 -156 -92 0
-148 -204 -156 -140 0
-148 -204 -92 -140 0
-148 -156 -92 -140 0
-149 -205 -157 -93 0
-149 -205 -157 -141 0
-149 -205 -93 -141 0
-149 -157 -93 -141 0
-150 -206 -158 -94 0
-150 -206 -158 -142 0
-150 -206 -94 -142 0
-150 -158 -94 -142 0
-151 -207 -159 -95 0
-151 -207 -159 -143 0
-151 -207 -95 -143 0
-151 -159 -95 -143 0
-152 -208 -160 -96 0
-152 -208 -160 -144 0
-152 -208 -96 -144 0
-152 -160 -96 -144 0
153 154 155 156 157 158 159 160 0
-459 -460 0
-459 -461 0
-460 -461 0
-462 -463 0
-462 -464 0
-463 -464 0
-153 459 0
-153 462 0
-154 459 0
-154 463 0
-155 459 0
-155 464 0
-156 460 0
-156 462 0
-157 460 0
-157 463 0
-158 460 0
-158 464 0
-159 461 0
-159 462 0
-160 461 0
-160 463 0
-153 209 161 97 0
-153 209 161 145 0
-153 209 97 145 0
-153 161 97 145 0
-154 210 162 98 0
-154 210 162 146 0
-154 210 98 146 0
-154 162 98 146 0
-155 211 163 99 0
-155 211 163 147 0
-155 211 99 147 0
-155 163 99 147 0
-156 212 164 100 0
-156 212 164 148 0
-156 212 100 148 0
-156 164 100 148 0
-157 213 165 101 0
-157 213 165 149 0
-157 213 101 149 0
-157 165 101 149 0
-158 214 166 102 0
-158 214 166 150 0
-158 214 102 150 0
-158 166 102 150 0
-159 215 167 103 0
-159 215 167 151 0
-159 215 103 151 0
-159 167 103 151 0
-160 216 168 104 0
-160 216 168 152 0
-160 216 104 152 0
-160 168 104 152 0
-153 -209 -161 -97 0
-153 -209 -161 -145 0
-153 -209 -97 -145 0
-153 -161 -97 -145 0
-154 -210 -162 -98 0
-154 -210 -162 -146 0
-154 -210 -98 -146 0
-154 -162 -98 -146 0
-155 -211 -163 -99 0
-155 -211 -163 -147 0
-155 -211 -99 -147 0
-155 -163 -99 -147 0
-156 -212 -164 -100 0
-156 -212 -164 -148 0
-156 -212 -100 -148 0
-156 -164 -100 -148 0
-157 -213 -165 -101 0
-157 -213 -165 -149 0
-157 -213 -101 -149 0
-157 -165 -101 -149 0
-158 -214 -166 -102 0
-158 -214 -166 -150 0
-158 -214 -102 -150 0
-158 -166 -102 -150 0
-159 -215 -167 -103 0
-159 -215 -167 -151 0
-159 -215 -103 -151 0
-159 -167 -103 -151 0
-160 -216 -168 -104 0
-160 -216 -168 -152 0
-160 -216 -104 -152 0
-160 -168 -104 -152 0
162 0
-161 0
-163 0
-164 0
-165 0
-166 0
-167 0
-168 0
218 154 106 0
-218 -154 0
-218 -106 0
-154 -106 0
169 170 171 172 173 174 175 176 0
-465 -466 0
-465 -467 0
-466 -467 0
-468 -469 0
-468 -470 0
-469 -470 0
-169 465 0
-169 468 0
-170 465 0
-170 469 0
-171 465 0
-171 470 0
-172 466 0
-172 468 0
-173 466 0
-173 469 0
-174 466 0
-174 470 0
-175 467 0
-175 468 0
-176 467 0
-176 469 0
-169 225 177 0
-169 225 113 0
-169 177 113 0
-170 226 178 0
-170 226 114 0
-170 178 114 0
-171 227 179 0
-171 227 115 0
-171 179 115 0
-172 228 180 0
-172 228 116 0
-172 180 116 0
-173 229 181 0
-173 229 117 0
-173 181 117 0
-174 230 182 0
-174 230 118 0
-174 182 118 0
-175 231 183 0
-175 231 119 0
-175 183 119 0
-176 232 184 0
-176 232 120 0
-176 184 120 0
-169 -225 -177 -113 0
-170 -226 -178 -114 0
-171 -227 -179 -115 0
-172 -228 -180 -116 0
-173 -229 -181 -117 0
-174 -230 -182 -118 0
-175 -231 -183 -119 0
-176 -232 -184 -120 0
182 0
-177 0
-178 0
-179 0
-180 0
-181 0
-183 0
-184 0
238 190 126 174 0
-238 -190 0
-238 -126 0
-238 -174 0
-190 -126 0
-190 -174 0
-126 -174 0
185 0
-186 0
-187 0
-188 0
-189 0
-190 0
-191 0
-192 0
241 193 129 177 0
-241 -193 0
-241 -129 0
-241 -177 0
-193 -129 0
-193 -177 0
-129 -177 0
195 0
-193 0
-194 0
-196 0
-197 0
-198 0
-199 0
-200 0
251 203 139 187 0
-251 -203 0
-251 -139 0
-251 -187 0
-203 -139 0
-203 -187 0
-139 -187 0
201 202 203 204 205 206 207 208 0
-471 -472 0
-471 -473 0
-472 -473 0
-474 -475 0
-474 -476 0
-475 -476 0
-201 471 0
-201 474 0
-202 471 0
-202 475 0
-203 471 0
-203 476 0
-204 472 0
-204 474 0
-205 472 0
-205 475 0
-206 472 0
-206 476 0
-207 473 0
-207 474 0
-208 473 0
-208 475 0
-201 257 209 145 0
-201 257 209 193 0
-201 257 145 193 0
-201 209 145 193 0
-202 258 210 146 0
-202 258 210 194 0
-202 258 146 194 0
-202 210 146 194 0
-203 259 211 147 0
-203 259 211 195 0
-203 259 147 195 0
-203 211 147 195 0
-204 260 212 148 0
-204 260 212 196 0
-204 260 148 196 0
-204 212 148 196 0
-205 261 213 149 0
-205 261 213 197 0
-205 261 149 197 0
-205 213 149 197 0
-206 262 214 150 0
-206 262 214 198 0
-206 262 150 198 0
-206 214 150 198 0
-207 263 215 151 0
-207 263 215 199 0
-207 263 151 199 0
-207 215 151 199 0
-208 264 216 152 0
-208 264 216 200 0
-208 264 152 200 0
-208 216 152 200 0
-201 -257 -209 -145 0
-201 -257 -209 -193 0
-201 -257 -145 -193 0
-201 -209 -145 -193 0
-202 -258 -210 -146 0
-202 -258 -210 -194 0
-202 -258 -146 -194 0
-202 -210 -146 -194 0
-203 -259 -211 -147 0
-203 -259 -211 -195 0
-203 -259 -147 -195 0
-203 -211 -147 -195 0
-204 -260 -212 -148 0
-204 -260 -212 -196 0
-204 -260 -148 -196 0
-204 -212 -148 -196 0
-205 -261 -213 -149 0
-205 -261 -213 -197 0
-205 -261 -149 -197 0
-205 -213 -149 -197 0
-206 -262 -214 -150 0
-206 -262 -214 -198 0
-206 -262 -150 -198 0
-206 -214 -150 -198 0
-207 -263 -215 -151 0
-207 -263 -215 -199 0
-207 -263 -151 -199 0
-207 -215 -151 -199 0
-208 -264 -216 -152 0
-208 -264 -216 -200 0
-208 -264 -152 -200 0
-208 -216 -152 -200 0
209 210 211 212 213 214 215 216 0
-477 -478 0
-477 -479 0
-478 -479 0
-480 -481 0
-480 -482 0
-481 -482 0
-209 477 0
-209 480 0
-210 477 0
-210 481 0
-211 477 0
-211 482 0
-212 478 0
-212 480 0
-213 478 0
-213 481 0
-214 478 0
-214 482 0
-215 479 0
-215 480 0
-216 479 0
-216 481 0
-209 265 217 153 0
-209 265 217 201 0
-209 265 153 201 0
-209 217 153 201 0
-210 266 218 154 0
-210 266 218 202 0
-210 266 154 202 0
-210 218 154 202 0
-211 267 219 155 0
-211 267 219 203 0
-211 267 155 203 0
-211 219 155 203 0
-212 268 220 156 0
-212 268 220 204 0
-212 268 156 204 0
-212 220 156 204 0
-213 269 221 157 0
-213 269 221 205 0
-213 269 157 205 0
-213 221 157 205 0
-214 270 222 158 0
-214 270 222 206 0
-214 270 158 206 0
-214 222 158 206 0
-215 271 223 159 0
-215 271 223 207 0
-215 271 159 207 0
-215 223 159 207 0
-216 272 224 160 0
-216 272 224 208 0
-216 272 160 208 0
-216 224 160 208 0
-209 -265 -217 -153 0
-209 -265 -217 -201 0
-209 -265 -153 -201 0
-209 -217 -153 -201 0
-210 -266 -218 -154 0
-210 -266 -218 -202 0
-210 -266 -154 -202 0
-210 -218 -154 -202 0
-211 -267 -219 -155 0
-211 -267 -219 -203 0
-211 -267 -155 -203 0
-211 -219 -155 -203 0
-212 -268 -220 -156 0
-212 -268 -220 -204 0
-212 -268 -156 -204 0
-212 -220 -156 -204 0
-213 -269 -221 -157 0
-213 -269 -221 -205 0
-213 -269 -157 -205 0
-213 -221 -157 -205 0
-214 -270 -222 -158 0
-214 -270 -222 -206 0
-214 -270 -158 -206 0
-214 -222 -158 -206 0
-215 -271 -223 -159 0
-215 -271 -223 -207 0
-215 -271 -159 -207 0
-215 -223 -159 -207 0
-216 -272 -224 -160 0
-216 -272 -224 -208 0
-216 -272 -160 -208 0
-216 -224 -160 -208 0
217 218 219 220 221 222 223 224 0
-483 -484 0
-483 -485 0
-484 -485 0
-486 -487 0
-486 -488 0
-487 -488 0
-217 483 0
-217 486 0
-218 483 0
-218 487 0
-219 483 0
-219 488 0
-220 484 0
-220 486 0
-221 484 0
-221 487 0
-222 484 0
-222 488 0
-223 485 0
-223 486 0
-224 485 0
-224 487 0
-217 273 209 0
-217 273 161 0
-217 209 161 0
-218 274 210 0
-218 274 162 0
-218 210 162 0
-219 275 211 0
-219 275 163 0
-219 211 163 0
-220 276 212 0
-220 276 164 0
-220 212 164 0
-221 277 213 0
-221 277 165 0
-221 213 165 0
-222 278 214 0
-222 278 166 0
-222 214 166 0
-223 279 215 0
-223 279 167 0
-223 215 167 0
-224 280 216 0
-224 280 168 0
-224 216 168 0
-217 -273 -209 -161 0
-218 -274 -210 -162 0
-219 -275 -211 -163 0
-220 -276 -212 -164 0
-221 -277 -213 -165 0
-222 -278 -214 -166 0
-223 -279 -215 -167 0
-224 -280 -216 -168 0
225 226 227 228 229 230 231 232 0
-489 -490 0
-489 -491 0
-490 -491 0
-492 -493 0
-492 -494 0
-493 -494 0
-225 489 0
-225 492 0
-226 489 0
-226 493 0
-227 489 0
-227 494 0
-228 490 0
-228 492 0
-229 490 0
-229 493 0
-230 490 0
-230 494 0
-231 491 0
-231 492 0
-232 491 0
-232 493 0
-225 281 233 0
-225 281 169 0
-225 233 169 0
-226 282 234 0
-226 282 170 0
-226 234 170 0
-227 283 235 0
-227 283 171 0
-227 235 171 0
-228 284 236 0
-228 284 172 0
-228 236 172 0
-229 285 237 0
-229 285 173 0
-229 237 173 0
-230 286 238 0
-230 286 174 0
-230 238 174 0
-231 287 239 0
-231 287 175 0
-231 239 175 0
-232 288 240 0
-232 288 176 0
-232 240 176 0
-225 -281 -233 -169 0
-226 -282 -234 -170 0
-227 -283 -235 -171 0
-228 -284 -236 -172 0
-229 -285 -237 -173 0
-230 -286 -238 -174 0
-231 -287 -239 -175 0
-232 -288 -240 -176 0
233 234 235 236 237 238 239 240 0
-495 -496 0
-495 -497 0
-496 -497 0
-498 -499 0
-498 -500 0
-499 -500 0
-233 495 0
-233 498 0
-234 495 0
-234 499 0
-235 495 0
-235 500 0
-236 496 0
-236 498 0
-237 496 0
-237 499 0
-238 496 0
-238 500 0
-239 497 0
-239 498 0
-240 497 0
-240 499 0
-233 289 241 177 0
-233 289 241 225 0
-233 289 177 225 0
-233 241 177 225 0
-234 290 242 178 0
-234 290 242 226 0
-234 290 178 226 0
-234 242 178 226 0
-235 291 243 179 0
-235 291 243 227 0
-235 291 179 227 0
-235 243 179 227 0
-236 292 244 180 0
-236 292 244 228 0
-236 292 180 228 0
-236 244 180 228 0
-237 293 245 181 0
-237 293 245 229 0
-237 293 181 229 0
-237 245 181 229 0
-238 294 246 182 0
-238 294 246 230 0
-238 294 182 230 0
-238 246 182 230 0
-239 295 247 183 0
-239 295 247 231 0
-239 295 183 231 0
-239 247 183 231 0
-240 296 248 184 0
-240 296 248 232 0
-240 296 184 232 0
-240 248 184 232 0
-233 -289 -241 -177 0
-233 -289 -241 -225 0
-233 -289 -177 -225 0
-233 -241 -177 -225 0
-234 -290 -242 -178 0
-234 -290 -242 -226 0
-234 -290 -178 -226 0
-234 -242 -178 -226 0
-235 -291 -243 -179 0
-235 -291 -243 -227 0
-235 -291 -179 -227 0
-235 -243 -179 -227 0
-236 -292 -244 -180 0
-236 -292 -244 -228 0
-236 -292 -180 -228 0
-236 -244 -180 -228 0
-237 -293 -245 -181 0
-237 -293 -245 -229 0
-237 -293 -181 -229 0
-237 -245 -181 -229 0
-238 -294 -246 -182 0
-238 -294 -246 -230 0
-238 -294 -182 -230 0
-238 -246 -182 -230 0
-239 -295 -247 -183 0
-239 -295 -247 -231 0
-239 -295 -183 -231 0
-239 -247 -183 -231 0
-240 -296 -248 -184 0
-240 -296 -248 -232 0
-240 -296 -184 -232 0
-240 -248 -184 -232 0
241 242 243 244 245 246 247 248 0
-501 -502 0
-501 -503 0
-502 -503 0
-504 -505 0
-504 -506 0
-505 -506 0
-241 501 0
-241 504 0
-242 501 0
-242 505 0
-243 501 0
-243 506 0
-244 502 0
-244 504 0
-245 502 0
-245 505 0
-246 502 0
-246 506 0
-247 503 0
-247 504 0
-248 503 0
-248 505 0
-241 297 249 185 0
-241 297 249 233 0
-241 297 185 233 0
-241 249 185 233 0
-242 298 250 186 0
-242 298 250 234 0
-242 298 186 234 0
-242 250 186 234 0
-243 299 251 187 0
-243 299 251 235 0
-243 299 187 235 0
-243 251 187 235 0
-244 300 252 188 0
-244 300 252 236 0
-244 300 188 236 0
-244 252 188 236 0
-245 301 253 189 0
-245 301 253 237 0
-245 301 189 237 0
-245 253 189 237 0
-246 302 254 190 0
-246 302 254 238 0
-246 302 190 238 0
-246 254 190 238 0
-247 303 255 191 0
-247 303 255 239 0
-247 303 191 239 0
-247 255 191 239 0
-248 304 256 192 0
-248 304 256 240 0
-248 304 192 240 0
-248 256 192 240 0
-241 -297 -249 -185 0
-241 -297 -249 -233 0
-241 -297 -185 -233 0
-241 -249 -185 -233 0
-242 -298 -250 -186 0
-242 -298 -250 -234 0
-242 -298 -186 -234 0
-242 -250 -186 -234 0
-243 -299 -251 -187 0
-243 -299 -251 -235 0
-243 -299 -187 -235 0
-243 -251 -187 -235 0
-244 -300 -252 -188 0
-244 -300 -252 -236 0
-244 -300 -188 -236 0
-244 -252 -188 -236 0
-245 -301 -253 -189 0
-245 -301 -253 -237 0
-245 -301 -189 -237 0
-245 -253 -189 -237 0
-246 -302 -254 -190 0
-246 -302 -254 -238 0
-246 -302 -190 -238 0
-246 -254 -190 -238 0
-247 -303 -255 -191 0
-247 -303 -255 -239 0
-247 -303 -191 -239 0
-247 -255 -191 -239 0
-248 -304 -256 -192 0
-248 -304 -256 -240 0
-248 -304 -192 -240 0
-248 -256 -192 -240 0
252 0
-249 0
-250 0
-251 0
-253 0
-254 0
-255 0
-256 0
308 260 196 244 0
-308 -260 0
-308 -196 0
-308 -244 0
-260 -196 0
-260 -244 0
-196 -244 0
257 258 259 260 261 262 263 264 0
-507 -508 0
-507 -509 0
-508 -509 0
-510 -511 0
-510 -512 0
-511 -512 0
-257 507 0
-257 510 0
-258 507 0
-258 511 0
-259 507 0
-259 512 0
-260 508 0
-260 510 0
-261 508 0
-261 511 0
-262 508 0
-262 512 0
-263 509 0
-263 510 0
-264 509 0
-264 511 0
-257 313 265 201 0
-257 313 265 249 0
-257 313 201 249 0
-257 265 201 249 0
-258 314 266 202 0
-258 314 266 250 0
-258 314 202 250 0
-258 266 202 250 0
-259 315 267 203 0
-259 315 267 251 0
-259 315 203 251 0
-259 267 203 251 0
-260 316 268 204 0
-260 316 268 252 0
-260 316 204 252 0
-260 268 204 252 0
-261 317 269 205 0
-261 317 269 253 0
-261 317 205 253 0
-261 269 205 253 0
-262 318 270 206 0
-262 318 270 254 0
-262 318 206 254 0
-262 270 206 254 0
-263 319 271 207 0
-263 319 271 255 0
-263 319 207 255 0
-263 271 207 255 0
-264 320 272 208 0
-264 320 272 256 0
-264 320 208 256 0
-264 272 208 256 0
-257 -313 -265 -201 0
-257 -313 -265 -249 0
-257 -313 -201 -249 0
-257 -265 -201 -249 0
-258 -314 -266 -202 0
-258 -314 -266 -250 0
-258 -314 -202 -250 0
-258 -266 -202 -250 0
-259 -315 -267 -203 0
-259 -315 -267 -251 0
-259 -315 -203 -251 0
-259 -267 -203 -251 0
-260 -316 -268 -204 0
-260 -316 -268 -252 0
-260 -316 -204 -252 0
-260 -268 -204 -252 0
-261 -317 -269 -205 0
-261 -317 -269 -253 0
-261 -317 -205 -253 0
-261 -269 -205 -253 0
-262 -318 -270 -206 0
-262 -318 -270 -254 0
-262 -318 -206 -254 0
-262 -270 -206 -254 0
-263 -319 -271 -207 0
-263 -319 -271 -255 0
-263 -319 -207 -255 0
-263 -271 -207 -255 0
-264 -320 -272 -208 0
-264 -320 -272 -256 0
-264 -320 -208 -256 0
-264 -272 -208 -256 0
265 266 267 268 269 270 271 272 0
-513 -514 0
-513 -515 0
-514 -515 0
-516 -517 0
-516 -518 0
-517 -518 0
-265 513 0
-265 516 0
-266 513 0
-266 517 0
-267 513 0
-267 518 0
-268 514 0
-268 516 0
-269 514 0
-269 517 0
-270 514 0
-270 518 0
-271 515 0
-271 516 0
-272 515 0
-272 517 0
-265 321 273 209 0
-265 321 273 257 0
-265 321 209 257 0
-265 273 209 257 0
-266 322 274 210 0
-266 322 274 258 0
-266 322 210 258 0
-266 274 210 258 0
-267 323 275 211 0
-267 323 275 259 0
-267 323 211 259 0
-267 275 211 259 0
-268 324 276 212 0
-268 324 276 260 0
-268 324 212 260 0
-268 276 212 260 0
-269 325 277 213 0
-269 325 277 261 0
-269 325 213 261 0
-269 277 213 261 0
-270 326 278 214 0
-270 326 278 262 0
-270 326 214 262 0
-270 278 214 262 0
-271 327 279 215 0
-271 327 279 263 0
-271 327 215 263 0
-271 279 215 263 0
-272 328 280 216 0
-272 328 280 264 0
-272 328 216 264 0
-272 280 216 264 0
-265 -321 -273 -209 0
-265 -321 -273 -257 0
-265 -321 -209 -257 0
-265 -273 -209 -257 0
-266 -322 -274 -210 0
-266 -322 -274 -258 0
-266 -322 -210 -258 0
-266 -274 -210 -258 0
-267 -323 -275 -211 0
-267 -323 -275 -259 0
-267 -323 -211 -259 0
-267 -275 -211 -259 0
-268 -324 -276 -212 0
-268 -324 -276 -260 0
-268 -324 -212 -260 0
-268 -276 -212 -260 0
-269 -325 -277 -213 0
-269 -325 -277 -261 0
-269 -325 -213 -261 0
-269 -277 -213 -261 0
-270 -326 -278 -214 0
-270 -326 -278 -262 0
-270 -326 -214 -262 0
-270 -278 -214 -262 0
-271 -327 -279 -215 0
-271 -327 -279 -263 0
-271 -327 -215 -263 0
-271 -279 -215 -263 0
-272 -328 -280 -216 0
-272 -328 -280 -264 0
-272 -328 -216 -264 0
-272 -280 -216 -264 0
273 274 275 276 277 278 279 280 0
-519 -520 0
-519 -521 0
-520 -521 0
-522 -523 0
-522 -524 0
-523 -524 0
-273 519 0
-273 522 0
-274 519 0
-274 523 0
-275 519 0
-275 524 0
-276 520 0
-276 522 0
-277 520 0
-277 523 0
-278 520 0
-278 524 0
-279 521 0
-279 522 0
-280 521 0
-280 523 0
-273 329 265 0
-273 329 217 0
-273 265 217 0
-274 330 266 0
-274 330 218 0
-274 266 218 0
-275 331 267 0
-275 331 219 0
-275 267 219 0
-276 332 268 0
-276 332 220 0
-276 268 220 0
-277 333 269 0
-277 333 221 0
-277 269 221 0
-278 334 270 0
-278 334 222 0
-278 270 222 0
-279 335 271 0
-279 335 223 0
-279 271 223 0
-280 336 272 0
-280 336 224 0
-280 272 224 0
-273 -329 -265 -217 0
-274 -330 -266 -218 0
-275 -331 -267 -219 0
-276 -332 -268 -220 0
-277 -333 -269 -221 0
-278 -334 -270 -222 0
-279 -335 -271 -223 0
-280 -336 -272 -224 0
281 282 283 284 285 286 287 288 0
-525 -526 0
-525 -527 0
-526 -527 0
-528 -529 0
-528 -530 0
-529 -530 0
-281 525 0
-281 528 0
-282 525 0
-282 529 0
-283 525 0
-283 530 0
-284 526 0
-284 528 0
-285 526 0
-285 529 0
-286 526 0
-286 530 0
-287 527 0
-287 528 0
-288 527 0
-288 529 0
-281 337 289 0
-281 337 225 0
-281 289 225 0
-282 338 290 0
-282 338 226 0
-282 290 226 0
-283 339 291 0
-283 339 227 0
-283 291 227 0
-284 340 292 0
-284 340 228 0
-284 292 228 0
-285 341 293 0
-285 341 229 0
-285 293 229 0
-286 342 294 0
-286 342 230 0
-286 294 230 0
-287 343 295 0
-287 343 231 0
-287 295 231 0
-288 344 296 0
-288 344 232 0
-288 296 232 0
-281 -337 -289 -225 0
-282 -338 -290 -226 0
-283 -339 -291 -227 0
-284 -340 -292 -228 0
-285 -341 -293 -229 0
-286 -342 -294 -230 0
-287 -343 -295 -231 0
-288 -344 -296 -232 0
289 290 291 292 293 294 295 296 0
-531 -532 0
-531 -533 0
-532 -533 0
-534 -535 0
-534 -536 0
-535 -536 0
-289 531 0
-289 534 0
-290 531 0
-290 535 0
-291 531 0
-291 536 0
-292 532 0
-292 534 0
-293 532 0
-293 535 0
-294 532 0
-294 536 0
-295 533 0
-295 534 0
-296 533 0
-296 535 0
-289 345 297 233 0
-289 345 297 281 0
-289 345 233 281 0
-289 297 233 281 0
-290 346 298 234 0
-290 346 298 282 0
-290 346 234 282 0
-290 298 234 282 0
-291 347 299 235 0
-291 347 299 283 0
-291 347 235 283 0
-291 299 235 283 0
-292 348 300 236 0
-292 348 300 284 0
-292 348 236 284 0
-292 300 236 284 0
-293 349 301 237 0
-293 349 301 285 0
-293 349 237 285 0
-293 301 237 285 0
-294 350 302 238 0
-294 350 302 286 0
-294 350 238 286 0
-294 302 238 286 0
-295 351 303 239 0
-295 351 303 287 0
-295 351 239 287 0
-295 303 239 287 0
-296 352 304 240 0
-296 352 304 288 0
-296 352 240 288 0
-296 304 240 288 0
-289 -345 -297 -233 0
-289 -345 -297 -281 0
-289 -345 -233 -281 0
-289 -297 -233 -281 0
-290 -346 -298 -234 0
-290 -346 -298 -282 0
-290 -346 -234 -282 0
-290 -298 -234 -282 0
-291 -347 -299 -235 0
-291 -347 -299 -283 0
-291 -347 -235 -283 0
-291 -299 -235 -283 0
-292 -348 -300 -236 0
-292 -348 -300 -284 0
-292 -348 -236 -284 0
-292 -300 -236 -284 0
-293 -349 -301 -237 0
-293 -349 -301 -285 0
-293 -349 -237 -285 0
-293 -301 -237 -285 0
-294 -350 -302 -238 0
-294 -350 -302 -286 0
-294 -350 -238 -286 0
-294 -302 -238 -286 0
-295 -351 -303 -239 0
-295 -351 -303 -287 0
-295 -351 -239 -287 0
-295 -303 -239 -287 0
-296 -352 -304 -240 0
-296 -352 -304 -288 0
-296 -352 -240 -288 0
-296 -304 -240 -288 0
297 298 299 300 301 302 303 304 0
-537 -538 0
-537 -539 0
-538 -539 0
-540 -541 0
-540 -542 0
-541 -542 0
-297 537 0
-297 540 0
-298 537 0
-298 541 0
-299 537 0
-299 542 0
-300 538 0
-300 540 0
-301 538 0
-301 541 0
-302 538 0
-302 542 0
-303 539 0
-303 540 0
-304 539 0
-304 541 0
-297 353 305 241 0
-297 353 305 289 0
-297 353 241 289 0
-297 305 241 289 0
-298 354 306 242 0
-298 354 306 290 0
-298 354 242 290 0
-298 306 242 290 0
-299 355 307 243 0
-299 355 307 291 0
-299 355 243 291 0
-299 307 243 291 0
-300 356 308 244 0
-300 356 308 292 0
-300 356 244 292 0
-300 308 244 292 0
-301 357 309 245 0
-301 357 309 293 0
-301 357 245 293 0
-301 309 245 293 0
-302 358 310 246 0
-302 358 310 294 0
-302 358 246 294 0
-302 310 246 294 0
-303 359 311 247 0
-303 359 311 295 0
-303 359 247 295 0
-303 311 247 295 0
-304 360 312 248 0
-304 360 312 296 0
-304 360 248 296 0
-304 312 248 296 0
-297 -353 -305 -241 0
-297 -353 -305 -289 0
-297 -353 -241 -289 0
-297 -305 -241 -289 0
-298 -354 -306 -242 0
-298 -354 -306 -290 0
-298 -354 -242 -290 0
-298 -306 -242 -290 0
-299 -355 -307 -243 0
-299 -355 -307 -291 0
-299 -355 -243 -291 0
-299 -307 -243 -291 0
-300 -356 -308 -244 0
-300 -356 -308 -292 0
-300 -356 -244 -292 0
-300 -308 -244 -292 0
-301 -357 -309 -245 0
-301 -357 -309 -293 0
-301 -357 -245 -293 0
-301 -309 -245 -293 0
-302 -358 -310 -246 0
-302 -358 -310 -294 0
-302 -358 -246 -294 0
-302 -310 -246 -294 0
-303 -359 -311 -247 0
-303 -359 -311 -295 0
-303 -359 -247 -295 0
-303 -311 -247 -295 0
-304 -360 -312 -248 0
-304 -360 -312 -296 0
-304 -360 -248 -296 0
-304 -312 -248 -296 0
305 306 307 308 309 310 311 312 0
-543 -544 0
-543 -545 0
-544 -545 0
-546 -547 0
-546 -548 0
-547 -548 0
-305 543 0
-305 546 0
-306 543 0
-306 547 0
-307 543 0
-307 548 0
-308 544 0
-308 546 0
-309 544 0
-309 547 0
-310 544 0
-310 548 0
-311 545 0
-311 546 0
-312 545 0
-312 547 0
-305 361 313 249 0
-305 361 313 297 0
-305 361 249 297 0
-305 313 249 297 0
-306 362 314 250 0
-306 362 314 298 0
-306 362 250 298 0
-306 314 250 298 0
-307 363 315 251 0
-307 363 315 299 0
-307 363 251 299 0
-307 315 251 299 0
-308 364 316 252 0
-308 364 316 300 0
-308 364 252 300 0
-308 316 252 300 0
-309 365 317 253 0
-309 365 317 301 0
-309 365 253 301 0
-309 317 253 301 0
-310 366 318 254 0
-310 366 318 302 0
-310 366 254 302 0
-310 318 254 302 0
-311 367 319 255 0
-311 367 319 303 0
-311 367 255 303 0
-311 319 255 303 0
-312 368 320 256 0
-312 368 320 304 0
-312 368 256 304 0
-312 320 256 304 0
-305 -361 -313 -249 0
-305 -361 -313 -297 0
-305 -361 -249 -297 0
-305 -313 -249 -297 0
-306 -362 -314 -250 0
-306 -362 -314 -298 0
-306 -362 -250 -298 0
-306 -314 -250 -298 0
-307 -363 -315 -251 0
-307 -363 -315 -299 0
-307 -363 -251 -299 0
-307 -315 -251 -299 0
-308 -364 -316 -252 0
-308 -364 -316 -300 0
-308 -364 -252 -300 0
-308 -316 -252 -300 0
-309 -365 -317 -253 0
-309 -365 -317 -301 0
-309 -365 -253 -301 0
-309 -317 -253 -301 0
-310 -366 -318 -254 0
-310 -366 -318 -302 0
-310 -366 -254 -302 0
-310 -318 -254 -302 0
-311 -367 -319 -255 0
-311 -367 -319 -303 0
-311 -367 -255 -303 0
-311 -319 -255 -303 0
-312 -368 -320 -256 0
-312 -368 -320 -304 0
-312 -368 -256 -304 0
-312 -320 -256 -304 0
313 314 315 316 317 318 319 320 0
-549 -550 0
-549 -551 0
-550 -551 0
-552 -553 0
-552 -554 0
-553 -554 0
-313 549 0
-313 552 0
-314 549 0
-314 553 0
-315 549 0
-315 554 0
-316 550 0
-316 552 0
-317 550 0
-317 553 0
-318 550 0
-318 554 0
-319 551 0
-319 552 0
-320 551 0
-320 553 0
-313 369 321 257 0
-313 369 321 305 0
-313 369 257 305 0
-313 321 257 305 0
-314 370 322 258 0
-314 370 322 306 0
-314 370 258 306 0
-314 322 258 306 0
-315 371 323 259 0
-315 371 323 307 0
-315 371 259 307 0
-315 323 259 307 0
-316 372 324 260 0
-316 372 324 308 0
-316 372 260 308 0
-316 324 260 308 0
-317 373 325 261 0
-317 373 325 309 0
-317 373 261 309 0
-317 325 261 309 0
-318 374 326 262 0
-318 374 326 310 0
-318 374 262 310 0
-318 326 262 310 0
-319 375 327 263 0
-319 375 327 311 0
-319 375 263 311 0
-319 327 263 311 0
-320 376 328 264 0
-320 376 328 312 0
-320 376 264 312 0
-320 328 264 312 0
-313 -369 -321 -257 0
-313 -369 -321 -305 0
-313 -369 -257 -305 0
-313 -321 -257 -305 0
-314 -370 -322 -258 0
-314 -370 -322 -306 0
-314 -370 -258 -306 0
-314 -322 -258 -306 0
-315 -371 -323 -259 0
-315 -371 -323 -307 0
-315 -371 -259 -307 0
-315 -323 -259 -307 0
-316 -372 -324 -260 0
-316 -372 -324 -308 0
-316 -372 -260 -308 0
-316 -324 -260 -308 0
-317 -373 -325 -261 0
-317 -373 -325 -309 0
-317 -373 -261 -309 0
-317 -325 -261 -309 0
-318 -374 -326 -262 0
-318 -374 -326 -310 0
-318 -374 -262 -310 0
-318 -326 -262 -310 0
-319 -375 -327 -263 0
-319 -375 -327 -311 0
-319 -375 -263 -311 0
-319 -327 -263 -311 0
-320 -376 -328 -264 0
-320 -376 -328 -312 0
-320 -376 -264 -312 0
-320 -328 -264 -312 0
321 322 323 324 325 326 327 328 0
-555 -556 0
-555 -557 0
-556 -557 0
-558 -559 0
-558 -560 0
-559 -560 0
-321 555 0
-321 558 0
-322 555 0
-322 559 0
-323 555 0
-323 560 0
-324 556 0
-324 558 0
-325 556 0
-325 559 0
-326 556 0
-326 560 0
-327 557 0
-327 558 0
-328 557 0
-328 559 0
-321 377 329 265 0
-321 377 329 313 0
-321 377 265 313 0
-321 329 265 313 0
-322 378 330 266 0
-322 378 330 314 0
-322 378 266 314 0
-322 330 266 314 0
-323 379 331 267 0
-323 379 331 315 0
-323 379 267 315 0
-323 331 267 315 0
-324 380 332 268 0
-324 380 332 316 0
-324 380 268 316 0
-324 332 268 316 0
-325 381 333 269 0
-325 381 333 317 0
-325 381 269 317 0
-325 333 269 317 0
-326 382 334 270 0
-326 382 334 318 0
-326 382 270 318 0
-326 334 270 318 0
-327 383 335 271 0
-327 383 335 319 0
-327 383 271 319 0
-327 335 271 319 0
-328 384 336 272 0
-328 384 336 320 0
-328 384 272 320 0
-328 336 272 320 0
-321 -377 -329 -265 0
-321 -377 -329 -313 0
-321 -377 -265 -313 0
-321 -329 -265 -313 0
-322 -378 -330 -266 0
-322 -378 -330 -314 0
-322 -378 -266 -314 0
-322 -330 -266 -314 0
-323 -379 -331 -267 0
-323 -379 -331 -315 0
-323 -379 -267 -315 0
-323 -331 -267 -315 0
-324 -380 -332 -268 0
-324 -380 -332 -316 0
-324 -380 -268 -316 0
-324 -332 -268 -316 0
-325 -381 -333 -269 0
-325 -381 -333 -317 0
-325 -381 -269 -317 0
-325 -333 -269 -317 0
-326 -382 -334 -270 0
-326 -382 -334 -318 0
-326 -382 -270 -318 0
-326 -334 -270 -318 0
-327 -383 -335 -271 0
-327 -383 -335 -319 0
-327 -383 -271 -319 0
-327 -335 -271 -319 0
-328 -384 -336 -272 0
-328 -384 -336 -320 0
-328 -384 -272 -320 0
-328 -336 -272 -320 0
329 330 331 332 333 334 335 336 0
-561 -562 0
-561 -563 0
-562 -563 0
-564 -565 0
-564 -566 0
-565 -566 0
-329 561 0
-329 564 0
-330 561 0
-330 565 0
-331 561 0
-331 566 0
-332 562 0
-332 564 0
-333 562 0
-333 565 0
-334 562 0
-334 566 0
-335 563 0
-335 564 0
-336 563 0
-336 565 0
-329 385 321 0
-329 385 273 0
-329 321 273 0
-330 386 322 0
-330 386 274 0
-330 322 274 0
-331 387 323 0
-331 387 275 0
-331 323 275 0
-332 388 324 0
-332 388 276 0
-332 324 276 0
-333 389 325 0
-333 389 277 0
-333 325 277 0
-334 390 326 0
-334 390 278 0
-334 326 278 0
-335 391 327 0
-335 391 279 0
-335 327 279 0
-336 392 328 0
-336 392 280 0
-336 328 280 0
-329 -385 -321 -273 0
-330 -386 -322 -274 0
-331 -387 -323 -275 0
-332 -388 -324 -276 0
-333 -389 -325 -277 0
-334 -390 -326 -278 0
-335 -391 -327 -279 0
-336 -392 -328 -280 0
338 0
-337 0
-339 0
-340 0
-341 0
-342 0
-343 0
-344 0
282 346 0
-282 -346 0
352 0
-345 0
-346 0
-347 0
-348 0
-349 0
-350 0
-351 0
296 360 344 0
-296 -360 0
-296 -344 0
-360 -344 0
353 354 355 356 357 358 359 360 0
-567 -568 0
-567 -569 0
-568 -569 0
-570 -571 0
-570 -572 0
-571 -572 0
-353 567 0
-353 570 0
-354 567 0
-354 571 0
-355 567 0
-355 572 0
-356 568 0
-356 570 0
-357 568 0
-357 571 0
-358 568 0
-358 572 0
-359 569 0
-359 570 0
-360 569 0
-360 571 0
-353 297 361 0
-353 297 345 0
-353 361 345 0
-354 298 362 0
-354 298 346 0
-354 362 346 0
-355 299 363 0
-355 299 347 0
-355 363 347 0
-356 300 364 0
-356 300 348 0
-356 364 348 0
-357 301 365 0
-357 301 349 0
-357 365 349 0
-358 302 366 0
-358 302 350 0
-358 366 350 0
-359 303 367 0
-359 303 351 0
-359 367 351 0
-360 304 368 0
-360 304 352 0
-360 368 352 0
-353 -297 -361 -345 0
-354 -298 -362 -346 0
-355 -299 -363 -347 0
-356 -300 -364 -348 0
-357 -301 -365 -349 0
-358 -302 -366 -350 0
-359 -303 -367 -351 0
-360 -304 -368 -352 0
361 362 363 364 365 366 367 368 0
-573 -574 0
-573 -575 0
-574 -575 0
-576 -577 0
-576 -578 0
-577 -578 0
-361 573 0
-361 576 0
-362 573 0
-362 577 0
-363 573 0
-363 578 0
-364 574 0
-364 576 0
-365 574 0
-365 577 0
-366 574 0
-366 578 0
-367 575 0
-367 576 0
-368 575 0
-368 577 0
-361 305 369 0
-361 305 353 0
-361 369 353 0
-362 306 370 0
-362 306 354 0
-362 370 354 0
-363 307 371 0
-363 307 355 0
-363 371 355 0
-364 308 372 0
-364 308 356 0
-364 372 356 0
-365 309 373 0
-365 309 357 0
-365 373 357 0
-366 310 374 0
-366 310 358 0
-366 374 358 0
-367 311 375 0
-367 311 359 0
-367 375 359 0
-368 312 376 0
-368 312 360 0
-368 376 360 0
-361 -305 -369 -353 0
-362 -306 -370 -354 0
-363 -307 -371 -355 0
-364 -308 -372 -356 0
-365 -309 -373 -357 0
-366 -310 -374 -358 0
-367 -311 -375 -359 0
-368 -312 -376 -360 0
369 370 371 372 373 374 375 376 0
-579 -580 0
-579 -581 0
-580 -581 0
-582 -583 0
-582 -584 0
-583 -584 0
-369 579 0
-369 582 0
-370 579 0
-370 583 0
-371 579 0
-371 584 0
-372 580 0
-372 582 0
-373 580 0
-373 583 0
-374 580 0
-374 584 0
-375 581 0
-375 582 0
-376 581 0
-376 583 0
-369 313 377 0
-369 313 361 0
-369 377 361 0
-370 314 378 0
-370 314 362 0
-370 378 362 0
-371 315 379 0
-371 315 363 0
-371 379 363 0
-372 316 380 0
-372 316 364 0
-372 380 364 0
-373 317 381 0
-373 317 365 0
-373 381 365 0
-374 318 382 0
-374 318 366 0
-374 382 366 0
-375 319 383 0
-375 319 367 0
-375 383 367 0
-376 320 384 0
-376 320 368 0
-376 384 368 0
-369 -313 -377 -361 0
-370 -314 -378 -362 0
-371 -315 -379 -363 0
-372 -316 -380 -364 0
-373 -317 -381 -365 0
-374 -318 -382 -366 0
-375 -319 -383 -367 0
-376 -320 -384 -368 0
377 378 379 380 381 382 383 384 0
-585 -586 0
-585 -587 0
-586 -587 0
-588 -589 0
-588 -590 0
-589 -590 0
-377 585 0
-377 588 0
-378 585 0
-378 589 0
-379 585 0
-379 590 0
-380 586 0
-380 588 0
-381 586 0
-381 589 0
-382 586 0
-382 590 0
-383 587 0
-383 588 0
-384 587 0
-384 589 0
-377 321 385 0
-377 321 369 0
-377 385 369 0
-378 322 386 0
-378 322 370 0
-378 386 370 0
-379 323 387 0
-379 323 371 0
-379 387 371 0
-380 324 388 0
-380 324 372 0
-380 388 372 0
-381 325 389 0
-381 325 373 0
-381 389 373 0
-382 326 390 0
-382 326 374 0
-382 390 374 0
-383 327 391 0
-383 327 375 0
-383 391 375 0
-384 328 392 0
-384 328 376 0
-384 392 376 0
-377 -321 -385 -369 0
-378 -322 -386 -370 0
-379 -323 -387 -371 0
-380 -324 -388 -372 0
-381 -325 -389 -373 0
-382 -326 -390 -374 0
-383 -327 -391 -375 0
-384 -328 -392 -376 0
392 0
-385 0
-386 0
-387 0
-388 0
-389 0
-390 0
-391 0
336 384 0
-336 -384 0